28 113
7 26
22 26
3 22
11 14
0 23
6 11
7 10
24 26
15 23
7 19
20 22
3 15
5 12
8 11
9 10
14 24
5 21
17 23
10 20
1 17
15 16
13 19
1 26
18 21
3 8
3 17
9 12
5 23
10 22
16 17
6 27
3 10
0 2
9 14
10 15
1 12
8 27
1 21
13 23
16 19
7 16
12 15
5 9
22 25
21 27
23 24
14 21
1 5
10 17
12 17
5 11
22 27
4 22
8 13
1 7
17 25
19 22
10 19
1 16
11 18
1 25
11 27
2 24
4 6
21 22
5 13
4 15
0 20
15 20
3 18
4 17
1 2
17 20
0 13
2 10
8 26
9 25
0 22
6 19
4 10
8 10
5 20
17 22
2 3
9 27
11 24
2 21
15 24
18 20
12 16
2 5
10 18
15 17
7 13
7 22
4 5
8 14
19 23
6 7
16 18
18 24
7 24
20 27
0 3
14 20
8 16
10 13
9 15
11 12
0 12
11 21
13 15
6 9
